(set-logic ALL)
(set-option :produce-models true)
(declare-sort BoundSet 0)
(declare-sort UnboundSet 0)
(set-option :finite-model-find true)
(declare-fun Drinks (BoundSet) Bool)
(declare-fun Parties (BoundSet) Bool)
(declare-fun HasMultiplePartners (BoundSet) Bool)
(declare-fun IsUntrustworthy (BoundSet) Bool)
(declare-fun SellsHealthFood (BoundSet) Bool)
(assert (not (=> (exists ((a BoundSet)) (and (Drinks a) (and (Parties a) (HasMultiplePartners a)))) (exists ((a BoundSet)) (and (IsUntrustworthy a) (not (SellsHealthFood a)))))))
(check-sat)
(get-model)